\ LP format - for model browsing. Use MPS format to capture full model detail.
Maximize
  7.5 x_black + 5 x_matcha
Subject To
 R0: 600 x_black + 525 x_matcha <= 30000
 R1: 10 x_black + 5 x_matcha <= 500
Bounds
Generals
 x_black x_matcha
End
